0 6666 8041 3212 5644 5456 6439
5929 0 3483 1677 1126 1673 1994
6983 2379 0 3068 3428 1918 4028
5922 1290 3456 0 2339 1645 2939
5571 1058 4150 3221 0 2340 1888
5220 3333 3218 2682 1663 0 3642
6116 2639 5731 4414 2519 3921 0
